9475
1011101011
9 2 4 4 3 2 2 2 9 2 2 2 2 2 2 2 2 2 2 3 3 3 2 3 3 2 2 2 3 3 3 3 3 3 3 3 3 3 3 6 0 8 8 6 8 8 8 8 3 3 8 6 6 6 6 6 6 6 6 6 6 6 4 6 0 8 4 6 6 0 0 0 0 4 4 0 0 4 0 0 0 4 4 0 4 4 4 4 4 4 4 4 4 9 4 9 9 9 9 9 